; benchmark generated from python API
(set-info :status unknown)
(declare-fun x_days () (_ BitVec 32))
(declare-fun y_days () (_ BitVec 32))
(assert
 (bvsle (_ bv4294930771 32) x_days))
(assert
 (bvsge (_ bv36523 32) x_days))
(assert
 (bvsle (_ bv4294930771 32) y_days))
(assert
 (bvsge (_ bv36523 32) y_days))
(assert
 (= x_days (_ bv7275 32)))
(assert
 (= y_days (_ bv6910 32)))
(assert
 (let ((?x2269 (bvadd x_days (_ bv730179 32))))
 (let ((?x1123 (bvsmod ?x2269 (_ bv146097 32))))
 (let ((?x499 (bvsdiv ?x1123 (_ bv36524 32))))
 (let ((?x3100 (ite (bvsle (_ bv4 32) ?x499) (_ bv3 32) ?x499)))
 (let ((?x2372 (bvsub ?x1123 (bvmul ?x3100 (_ bv36524 32)))))
 (let ((?x563 (bvsmod ?x2372 (_ bv1461 32))))
 (let ((?x2689 (bvsdiv ?x563 (_ bv365 32))))
 (let ((?x691 (ite (bvsle (_ bv4 32) ?x2689) (_ bv3 32) ?x2689)))
 (let ((?x1158 (bvadd (bvadd (bvmul (bvsdiv ?x2269 (_ bv146097 32)) (_ bv400 32)) (bvmul ?x3100 (_ bv100 32))) (bvmul (bvsdiv ?x2372 (_ bv1461 32)) (_ bv4 32)))))
 (let ((?x1191 (bvadd (bvadd ?x1158 ?x691) (_ bv1 32))))
 (let (($x1768 (or (and (= (bvsmod ?x1191 (_ bv4 32)) (_ bv0 32)) (and (distinct (bvsmod ?x1191 (_ bv100 32)) (_ bv0 32)) true)) (= (bvsmod ?x1191 (_ bv400 32)) (_ bv0 32)))))
 (let ((?x4204 (bvsub ?x563 (bvmul ?x691 (_ bv365 32)))))
 (let ((?x1266 (ite $x1768 (_ bv31 32) (_ bv31 32))))
 (let (($x2882 (bvsge ?x4204 ?x1266)))
 (let ((?x3863 (ite $x2882 (bvadd (bvsub ?x4204 ?x1266) (_ bv1 32)) (bvadd (bvsub ?x4204 (ite $x1768 (_ bv0 32) (_ bv0 32))) (_ bv1 32)))))
 (let ((?x2110 (ite $x1768 (_ bv60 32) (_ bv59 32))))
 (let (($x3135 (bvsge ?x4204 ?x2110)))
 (let ((?x18948 (ite $x1768 (_ bv91 32) (_ bv90 32))))
 (let (($x2319 (bvsge ?x4204 ?x18948)))
 (let ((?x4432 (ite $x2319 (bvadd (bvsub ?x4204 ?x18948) (_ bv1 32)) (ite $x3135 (bvadd (bvsub ?x4204 ?x2110) (_ bv1 32)) ?x3863))))
 (let ((?x4126 (ite $x1768 (_ bv121 32) (_ bv120 32))))
 (let (($x3503 (bvsge ?x4204 ?x4126)))
 (let ((?x2450 (ite $x1768 (_ bv152 32) (_ bv151 32))))
 (let (($x1518 (bvsge ?x4204 ?x2450)))
 (let ((?x650 (ite $x1518 (bvadd (bvsub ?x4204 ?x2450) (_ bv1 32)) (ite $x3503 (bvadd (bvsub ?x4204 ?x4126) (_ bv1 32)) ?x4432))))
 (let ((?x4494 (ite $x1768 (_ bv182 32) (_ bv181 32))))
 (let (($x3051 (bvsge ?x4204 ?x4494)))
 (let ((?x1427 (ite $x1768 (_ bv213 32) (_ bv212 32))))
 (let (($x903 (bvsge ?x4204 ?x1427)))
 (let ((?x2931 (ite $x903 (bvadd (bvsub ?x4204 ?x1427) (_ bv1 32)) (ite $x3051 (bvadd (bvsub ?x4204 ?x4494) (_ bv1 32)) ?x650))))
 (let ((?x3177 (ite $x1768 (_ bv244 32) (_ bv243 32))))
 (let (($x2083 (bvsge ?x4204 ?x3177)))
 (let ((?x3997 (ite $x1768 (_ bv274 32) (_ bv273 32))))
 (let (($x3189 (bvsge ?x4204 ?x3997)))
 (let ((?x3962 (ite $x3189 (bvadd (bvsub ?x4204 ?x3997) (_ bv1 32)) (ite $x2083 (bvadd (bvsub ?x4204 ?x3177) (_ bv1 32)) ?x2931))))
 (let ((?x2936 (ite $x1768 (_ bv305 32) (_ bv304 32))))
 (let (($x4449 (bvsge ?x4204 ?x2936)))
 (let ((?x1938 (ite $x1768 (_ bv335 32) (_ bv334 32))))
 (let (($x3079 (bvsge ?x4204 ?x1938)))
 (let ((?x4588 (ite $x3079 (bvadd (bvsub ?x4204 ?x1938) (_ bv1 32)) (ite $x4449 (bvadd (bvsub ?x4204 ?x2936) (_ bv1 32)) ?x3962))))
 (let ((?x1243 (bvadd (bvmul (_ bv0 32) (_ bv12 32)) (_ bv1 32))))
 (let ((?x4202 (ite $x1518 (_ bv6 32) (ite $x3503 (_ bv5 32) (ite $x2319 (_ bv4 32) (ite $x3135 (_ bv3 32) (ite $x2882 (_ bv2 32) (_ bv1 32))))))))
 (let ((?x3653 (ite $x4449 (_ bv11 32) (ite $x3189 (_ bv10 32) (ite $x2083 (_ bv9 32) (ite $x903 (_ bv8 32) (ite $x3051 (_ bv7 32) ?x4202)))))))
 (let ((?x2918 (bvadd (ite $x3079 (_ bv12 32) ?x3653) ?x1243)))
 (let ((?x4626 (bvsub (ite (bvuge ?x2918 (_ bv2147483648 32)) (bvsub ?x2918 (_ bv0 32)) ?x2918) (_ bv1 32))))
 (let ((?x2932 (bvsmod ?x4626 (_ bv12 32))))
 (let ((?x3018 (bvadd ?x2932 (_ bv1 32))))
 (let ((?x1561 (ite (or (= ?x3018 (_ bv4 32)) (= ?x3018 (_ bv6 32)) (= ?x3018 (_ bv9 32)) (= ?x3018 (_ bv11 32))) (_ bv30 32) (_ bv31 32))))
 (let ((?x957 (bvsdiv ?x4626 (_ bv12 32))))
 (let ((?x968 (ite (and (bvuge ?x4626 (_ bv2147483648 32)) (and (distinct (_ bv0 32) ?x2932) true)) (bvsub ?x957 (_ bv1 32)) ?x957)))
 (let ((?x2463 (bvadd ?x1191 (bvadd (_ bv0 32) ?x968))))
 (let (($x1820 (or (and (= (bvsmod ?x2463 (_ bv4 32)) (_ bv0 32)) (and (distinct (bvsmod ?x2463 (_ bv100 32)) (_ bv0 32)) true)) (= (bvsmod ?x2463 (_ bv400 32)) (_ bv0 32)))))
 (let ((?x2475 (ite (= ?x3018 (_ bv2 32)) (ite $x1820 (_ bv29 32) (_ bv28 32)) ?x1561)))
 (let ((?x565 (ite (bvsgt (_ bv1 32) ?x4588) (_ bv1 32) (ite (bvsgt ?x4588 ?x2475) ?x2475 ?x4588))))
 (let ((?x3436 (ite (bvsgt (_ bv1 32) ?x565) (_ bv1 32) (ite (bvsgt ?x565 ?x2475) ?x2475 ?x565))))
 (let ((?x1277 (ite (= (_ bv2 32) ?x3018) (ite $x1820 (_ bv31 32) (_ bv31 32)) (ite (= (_ bv1 32) ?x3018) (ite $x1820 (_ bv0 32) (_ bv0 32)) (_ bv0 32)))))
 (let ((?x500 (ite (= (_ bv4 32) ?x3018) (ite $x1820 (_ bv91 32) (_ bv90 32)) (ite (= (_ bv3 32) ?x3018) (ite $x1820 (_ bv60 32) (_ bv59 32)) ?x1277))))
 (let ((?x703 (ite (= (_ bv6 32) ?x3018) (ite $x1820 (_ bv152 32) (_ bv151 32)) (ite (= (_ bv5 32) ?x3018) (ite $x1820 (_ bv121 32) (_ bv120 32)) ?x500))))
 (let ((?x833 (ite (= (_ bv8 32) ?x3018) (ite $x1820 (_ bv213 32) (_ bv212 32)) (ite (= (_ bv7 32) ?x3018) (ite $x1820 (_ bv182 32) (_ bv181 32)) ?x703))))
 (let ((?x4047 (ite (= (_ bv10 32) ?x3018) (ite $x1820 (_ bv274 32) (_ bv273 32)) (ite (= (_ bv9 32) ?x3018) (ite $x1820 (_ bv244 32) (_ bv243 32)) ?x833))))
 (let ((?x3275 (ite (= (_ bv12 32) ?x3018) (ite $x1820 (_ bv335 32) (_ bv334 32)) (ite (= (_ bv11 32) ?x3018) (ite $x1820 (_ bv305 32) (_ bv304 32)) ?x4047))))
 (let ((?x2648 (bvadd (bvmul (_ bv365 32) (bvsub ?x2463 (_ bv1 32))) (bvsdiv (bvsub ?x2463 (_ bv1 32)) (_ bv4 32)))))
 (let ((?x2056 (bvadd (bvsub ?x2648 (bvsdiv (bvsub ?x2463 (_ bv1 32)) (_ bv100 32))) (bvsdiv (bvsub ?x2463 (_ bv1 32)) (_ bv400 32)))))
 (let ((?x3640 (bvadd (bvadd (bvsub (bvadd (bvadd ?x2056 ?x3275) (bvsub ?x3436 (_ bv1 32))) (_ bv730179 32)) (_ bv0 32)) (_ bv730179 32))))
 (let ((?x2237 (bvsmod ?x3640 (_ bv146097 32))))
 (let ((?x2863 (bvsdiv ?x2237 (_ bv36524 32))))
 (let ((?x2204 (ite (bvsle (_ bv4 32) ?x2863) (_ bv3 32) ?x2863)))
 (let ((?x912 (bvsub ?x2237 (bvmul ?x2204 (_ bv36524 32)))))
 (let ((?x1819 (bvsmod ?x912 (_ bv1461 32))))
 (let ((?x41092 (bvsdiv ?x1819 (_ bv365 32))))
 (let ((?x3859 (ite (bvsle (_ bv4 32) ?x41092) (_ bv3 32) ?x41092)))
 (let ((?x569 (bvadd (bvadd (bvmul (bvsdiv ?x3640 (_ bv146097 32)) (_ bv400 32)) (bvmul ?x2204 (_ bv100 32))) (bvmul (bvsdiv ?x912 (_ bv1461 32)) (_ bv4 32)))))
 (let ((?x1494 (bvadd (bvadd ?x569 ?x3859) (_ bv1 32))))
 (let (($x4224 (or (and (= (bvsmod ?x1494 (_ bv4 32)) (_ bv0 32)) (and (distinct (bvsmod ?x1494 (_ bv100 32)) (_ bv0 32)) true)) (= (bvsmod ?x1494 (_ bv400 32)) (_ bv0 32)))))
 (let ((?x661 (bvsub ?x1819 (bvmul ?x3859 (_ bv365 32)))))
 (let ((?x4457 (ite $x4224 (_ bv31 32) (_ bv31 32))))
 (let (($x1047 (bvsge ?x661 ?x4457)))
 (let ((?x1913 (ite $x1047 (bvadd (bvsub ?x661 ?x4457) (_ bv1 32)) (bvadd (bvsub ?x661 (ite $x4224 (_ bv0 32) (_ bv0 32))) (_ bv1 32)))))
 (let ((?x1388 (ite $x4224 (_ bv60 32) (_ bv59 32))))
 (let (($x2527 (bvsge ?x661 ?x1388)))
 (let ((?x3141 (ite $x4224 (_ bv91 32) (_ bv90 32))))
 (let (($x618 (bvsge ?x661 ?x3141)))
 (let ((?x40493 (ite $x618 (bvadd (bvsub ?x661 ?x3141) (_ bv1 32)) (ite $x2527 (bvadd (bvsub ?x661 ?x1388) (_ bv1 32)) ?x1913))))
 (let ((?x1108 (ite $x4224 (_ bv121 32) (_ bv120 32))))
 (let (($x1801 (bvsge ?x661 ?x1108)))
 (let ((?x3343 (ite $x4224 (_ bv152 32) (_ bv151 32))))
 (let (($x4545 (bvsge ?x661 ?x3343)))
 (let ((?x693 (ite $x4545 (bvadd (bvsub ?x661 ?x3343) (_ bv1 32)) (ite $x1801 (bvadd (bvsub ?x661 ?x1108) (_ bv1 32)) ?x40493))))
 (let ((?x420 (ite $x4224 (_ bv182 32) (_ bv181 32))))
 (let (($x1338 (bvsge ?x661 ?x420)))
 (let ((?x1431 (ite $x4224 (_ bv213 32) (_ bv212 32))))
 (let (($x857 (bvsge ?x661 ?x1431)))
 (let ((?x1983 (ite $x857 (bvadd (bvsub ?x661 ?x1431) (_ bv1 32)) (ite $x1338 (bvadd (bvsub ?x661 ?x420) (_ bv1 32)) ?x693))))
 (let ((?x1693 (ite $x4224 (_ bv244 32) (_ bv243 32))))
 (let (($x2749 (bvsge ?x661 ?x1693)))
 (let ((?x473 (ite $x4224 (_ bv274 32) (_ bv273 32))))
 (let (($x991 (bvsge ?x661 ?x473)))
 (let ((?x2028 (ite $x991 (bvadd (bvsub ?x661 ?x473) (_ bv1 32)) (ite $x2749 (bvadd (bvsub ?x661 ?x1693) (_ bv1 32)) ?x1983))))
 (let ((?x2480 (ite $x4224 (_ bv305 32) (_ bv304 32))))
 (let (($x3881 (bvsge ?x661 ?x2480)))
 (let ((?x4056 (ite $x4224 (_ bv335 32) (_ bv334 32))))
 (let (($x2842 (bvsge ?x661 ?x4056)))
 (let ((?x3660 (ite $x2842 (bvadd (bvsub ?x661 ?x4056) (_ bv1 32)) (ite $x3881 (bvadd (bvsub ?x661 ?x2480) (_ bv1 32)) ?x2028))))
 (let (($x48710 (= (_ bv0 32) (_ bv0 32))))
 (let (($x3422 (and (= (bvsmod (ite $x48710 ?x2463 ?x1494) (_ bv4 32)) (_ bv0 32)) (and (distinct (bvsmod (ite $x48710 ?x2463 ?x1494) (_ bv100 32)) (_ bv0 32)) true))))
 (let (($x5085 (or $x3422 (= (bvsmod (ite $x48710 ?x2463 ?x1494) (_ bv400 32)) (_ bv0 32)))))
 (let ((?x2271 (ite $x4545 (_ bv6 32) (ite $x1801 (_ bv5 32) (ite $x618 (_ bv4 32) (ite $x2527 (_ bv3 32) (ite $x1047 (_ bv2 32) (_ bv1 32))))))))
 (let ((?x1199 (ite $x3881 (_ bv11 32) (ite $x991 (_ bv10 32) (ite $x2749 (_ bv9 32) (ite $x857 (_ bv8 32) (ite $x1338 (_ bv7 32) ?x2271)))))))
 (let ((?x40206 (ite $x48710 ?x3018 (ite $x2842 (_ bv12 32) ?x1199))))
 (let ((?x2109 (ite (= (_ bv2 32) ?x40206) (ite $x5085 (_ bv31 32) (_ bv31 32)) (ite (= (_ bv1 32) ?x40206) (ite $x5085 (_ bv0 32) (_ bv0 32)) (_ bv0 32)))))
 (let ((?x1210 (ite (= (_ bv4 32) ?x40206) (ite $x5085 (_ bv91 32) (_ bv90 32)) (ite (= (_ bv3 32) ?x40206) (ite $x5085 (_ bv60 32) (_ bv59 32)) ?x2109))))
 (let ((?x865 (ite (= (_ bv6 32) ?x40206) (ite $x5085 (_ bv152 32) (_ bv151 32)) (ite (= (_ bv5 32) ?x40206) (ite $x5085 (_ bv121 32) (_ bv120 32)) ?x1210))))
 (let ((?x1854 (ite (= (_ bv8 32) ?x40206) (ite $x5085 (_ bv213 32) (_ bv212 32)) (ite (= (_ bv7 32) ?x40206) (ite $x5085 (_ bv182 32) (_ bv181 32)) ?x865))))
 (let ((?x1646 (ite (= (_ bv10 32) ?x40206) (ite $x5085 (_ bv274 32) (_ bv273 32)) (ite (= (_ bv9 32) ?x40206) (ite $x5085 (_ bv244 32) (_ bv243 32)) ?x1854))))
 (let ((?x35074 (ite (= (_ bv12 32) ?x40206) (ite $x5085 (_ bv335 32) (_ bv334 32)) (ite (= (_ bv11 32) ?x40206) (ite $x5085 (_ bv305 32) (_ bv304 32)) ?x1646))))
 (let ((?x49306 (bvadd (bvmul (_ bv365 32) (bvsub (ite $x48710 ?x2463 ?x1494) (_ bv1 32))) (bvsdiv (bvsub (ite $x48710 ?x2463 ?x1494) (_ bv1 32)) (_ bv4 32)))))
 (let ((?x2017 (bvadd (bvsub ?x49306 (bvsdiv (bvsub (ite $x48710 ?x2463 ?x1494) (_ bv1 32)) (_ bv100 32))) (bvsdiv (bvsub (ite $x48710 ?x2463 ?x1494) (_ bv1 32)) (_ bv400 32)))))
 (let ((?x40789 (bvsub (bvadd (bvadd ?x2017 ?x35074) (bvsub (ite $x48710 ?x3436 ?x3660) (_ bv1 32))) (_ bv730179 32))))
 (= ?x40789 (_ bv7304 32)))))))))))))))))))))))))))))))))))))))))))))))))))))))))))))))))))))))))))))))))))))))))))))))))))))))))))))))))))))))))
(assert
 (let ((?x38516 (bvadd y_days (_ bv730179 32))))
(let ((?x41263 (bvsmod ?x38516 (_ bv146097 32))))
(let ((?x1138 (bvsdiv ?x41263 (_ bv36524 32))))
(let ((?x40743 (ite (bvsle (_ bv4 32) ?x1138) (_ bv3 32) ?x1138)))
(let ((?x40753 (bvsub ?x41263 (bvmul ?x40743 (_ bv36524 32)))))
(let ((?x41260 (bvsmod ?x40753 (_ bv1461 32))))
(let ((?x41258 (bvsdiv ?x41260 (_ bv365 32))))
(let ((?x38771 (ite (bvsle (_ bv4 32) ?x41258) (_ bv3 32) ?x41258)))
(let ((?x37814 (bvadd (bvadd (bvmul (bvsdiv ?x38516 (_ bv146097 32)) (_ bv400 32)) (bvmul ?x40743 (_ bv100 32))) (bvmul (bvsdiv ?x40753 (_ bv1461 32)) (_ bv4 32)))))
(let ((?x40676 (bvadd (bvadd ?x37814 ?x38771) (_ bv1 32))))
(let (($x41029 (or (and (= (bvsmod ?x40676 (_ bv4 32)) (_ bv0 32)) (and (distinct (bvsmod ?x40676 (_ bv100 32)) (_ bv0 32)) true)) (= (bvsmod ?x40676 (_ bv400 32)) (_ bv0 32)))))
(let ((?x41179 (bvsub ?x41260 (bvmul ?x38771 (_ bv365 32)))))
(let ((?x41037 (ite $x41029 (_ bv31 32) (_ bv31 32))))
(let (($x41406 (bvsge ?x41179 ?x41037)))
(let ((?x2152 (ite $x41406 (bvadd (bvsub ?x41179 ?x41037) (_ bv1 32)) (bvadd (bvsub ?x41179 (ite $x41029 (_ bv0 32) (_ bv0 32))) (_ bv1 32)))))
(let ((?x4096 (ite $x41029 (_ bv60 32) (_ bv59 32))))
(let (($x2846 (bvsge ?x41179 ?x4096)))
(let ((?x4136 (ite $x41029 (_ bv91 32) (_ bv90 32))))
(let (($x18994 (bvsge ?x41179 ?x4136)))
(let ((?x40659 (ite $x18994 (bvadd (bvsub ?x41179 ?x4136) (_ bv1 32)) (ite $x2846 (bvadd (bvsub ?x41179 ?x4096) (_ bv1 32)) ?x2152))))
(let ((?x40044 (ite $x41029 (_ bv121 32) (_ bv120 32))))
(let (($x40898 (bvsge ?x41179 ?x40044)))
(let ((?x36995 (ite $x41029 (_ bv152 32) (_ bv151 32))))
(let (($x40865 (bvsge ?x41179 ?x36995)))
(let ((?x41642 (ite $x40865 (bvadd (bvsub ?x41179 ?x36995) (_ bv1 32)) (ite $x40898 (bvadd (bvsub ?x41179 ?x40044) (_ bv1 32)) ?x40659))))
(let ((?x41195 (ite $x41029 (_ bv182 32) (_ bv181 32))))
(let (($x3385 (bvsge ?x41179 ?x41195)))
(let ((?x41217 (ite $x41029 (_ bv213 32) (_ bv212 32))))
(let (($x41240 (bvsge ?x41179 ?x41217)))
(let ((?x41343 (ite $x41240 (bvadd (bvsub ?x41179 ?x41217) (_ bv1 32)) (ite $x3385 (bvadd (bvsub ?x41179 ?x41195) (_ bv1 32)) ?x41642))))
(let ((?x2676 (ite $x41029 (_ bv244 32) (_ bv243 32))))
(let (($x49292 (bvsge ?x41179 ?x2676)))
(let ((?x1855 (ite $x41029 (_ bv274 32) (_ bv273 32))))
(let (($x40813 (bvsge ?x41179 ?x1855)))
(let ((?x40992 (ite $x40813 (bvadd (bvsub ?x41179 ?x1855) (_ bv1 32)) (ite $x49292 (bvadd (bvsub ?x41179 ?x2676) (_ bv1 32)) ?x41343))))
(let ((?x47093 (ite $x41029 (_ bv305 32) (_ bv304 32))))
(let (($x41599 (bvsge ?x41179 ?x47093)))
(let ((?x41199 (ite $x41029 (_ bv335 32) (_ bv334 32))))
(let (($x40677 (bvsge ?x41179 ?x41199)))
(let ((?x2192 (ite $x40677 (bvadd (bvsub ?x41179 ?x41199) (_ bv1 32)) (ite $x41599 (bvadd (bvsub ?x41179 ?x47093) (_ bv1 32)) ?x40992))))
(let ((?x1243 (bvadd (bvmul (_ bv0 32) (_ bv12 32)) (_ bv1 32))))
(let ((?x2730 (ite $x40865 (_ bv6 32) (ite $x40898 (_ bv5 32) (ite $x18994 (_ bv4 32) (ite $x2846 (_ bv3 32) (ite $x41406 (_ bv2 32) (_ bv1 32))))))))
(let ((?x41101 (ite $x41599 (_ bv11 32) (ite $x40813 (_ bv10 32) (ite $x49292 (_ bv9 32) (ite $x41240 (_ bv8 32) (ite $x3385 (_ bv7 32) ?x2730)))))))
(let ((?x866 (bvadd (ite $x40677 (_ bv12 32) ?x41101) ?x1243)))
(let ((?x3075 (bvsub (ite (bvuge ?x866 (_ bv2147483648 32)) (bvsub ?x866 (_ bv0 32)) ?x866) (_ bv1 32))))
(let ((?x682 (bvsmod ?x3075 (_ bv12 32))))
(let ((?x2794 (bvadd ?x682 (_ bv1 32))))
(let ((?x40756 (ite (or (= ?x2794 (_ bv4 32)) (= ?x2794 (_ bv6 32)) (= ?x2794 (_ bv9 32)) (= ?x2794 (_ bv11 32))) (_ bv30 32) (_ bv31 32))))
(let ((?x2629 (bvsdiv ?x3075 (_ bv12 32))))
(let ((?x2590 (ite (and (bvuge ?x3075 (_ bv2147483648 32)) (and (distinct (_ bv0 32) ?x682) true)) (bvsub ?x2629 (_ bv1 32)) ?x2629)))
(let ((?x40333 (bvadd ?x40676 (bvadd (_ bv0 32) ?x2590))))
(let (($x40077 (or (and (= (bvsmod ?x40333 (_ bv4 32)) (_ bv0 32)) (and (distinct (bvsmod ?x40333 (_ bv100 32)) (_ bv0 32)) true)) (= (bvsmod ?x40333 (_ bv400 32)) (_ bv0 32)))))
(let ((?x40624 (ite (= ?x2794 (_ bv2 32)) (ite $x40077 (_ bv29 32) (_ bv28 32)) ?x40756)))
(let ((?x15289 (ite (bvsgt (_ bv1 32) ?x2192) (_ bv1 32) (ite (bvsgt ?x2192 ?x40624) ?x40624 ?x2192))))
(let ((?x41643 (ite (bvsgt (_ bv1 32) ?x15289) (_ bv1 32) (ite (bvsgt ?x15289 ?x40624) ?x40624 ?x15289))))
(let ((?x46508 (ite (= (_ bv2 32) ?x2794) (ite $x40077 (_ bv31 32) (_ bv31 32)) (ite (= (_ bv1 32) ?x2794) (ite $x40077 (_ bv0 32) (_ bv0 32)) (_ bv0 32)))))
(let ((?x16229 (ite (= (_ bv4 32) ?x2794) (ite $x40077 (_ bv91 32) (_ bv90 32)) (ite (= (_ bv3 32) ?x2794) (ite $x40077 (_ bv60 32) (_ bv59 32)) ?x46508))))
(let ((?x40937 (ite (= (_ bv6 32) ?x2794) (ite $x40077 (_ bv152 32) (_ bv151 32)) (ite (= (_ bv5 32) ?x2794) (ite $x40077 (_ bv121 32) (_ bv120 32)) ?x16229))))
(let ((?x1208 (ite (= (_ bv8 32) ?x2794) (ite $x40077 (_ bv213 32) (_ bv212 32)) (ite (= (_ bv7 32) ?x2794) (ite $x40077 (_ bv182 32) (_ bv181 32)) ?x40937))))
(let ((?x41383 (ite (= (_ bv10 32) ?x2794) (ite $x40077 (_ bv274 32) (_ bv273 32)) (ite (= (_ bv9 32) ?x2794) (ite $x40077 (_ bv244 32) (_ bv243 32)) ?x1208))))
(let ((?x17302 (ite (= (_ bv12 32) ?x2794) (ite $x40077 (_ bv335 32) (_ bv334 32)) (ite (= (_ bv11 32) ?x2794) (ite $x40077 (_ bv305 32) (_ bv304 32)) ?x41383))))
(let ((?x4123 (bvadd (bvmul (_ bv365 32) (bvsub ?x40333 (_ bv1 32))) (bvsdiv (bvsub ?x40333 (_ bv1 32)) (_ bv4 32)))))
(let ((?x47057 (bvadd (bvsub ?x4123 (bvsdiv (bvsub ?x40333 (_ bv1 32)) (_ bv100 32))) (bvsdiv (bvsub ?x40333 (_ bv1 32)) (_ bv400 32)))))
(let ((?x3412 (bvadd (bvadd (bvsub (bvadd (bvadd ?x47057 ?x17302) (bvsub ?x41643 (_ bv1 32))) (_ bv730179 32)) (_ bv0 32)) (_ bv730179 32))))
(let ((?x41164 (bvsmod ?x3412 (_ bv146097 32))))
(let ((?x40850 (bvsdiv ?x41164 (_ bv36524 32))))
(let ((?x1821 (ite (bvsle (_ bv4 32) ?x40850) (_ bv3 32) ?x40850)))
(let ((?x3033 (bvsub ?x41164 (bvmul ?x1821 (_ bv36524 32)))))
(let ((?x2112 (bvsmod ?x3033 (_ bv1461 32))))
(let ((?x1410 (bvsdiv ?x2112 (_ bv365 32))))
(let ((?x767 (ite (bvsle (_ bv4 32) ?x1410) (_ bv3 32) ?x1410)))
(let ((?x39786 (bvadd (bvadd (bvmul (bvsdiv ?x3412 (_ bv146097 32)) (_ bv400 32)) (bvmul ?x1821 (_ bv100 32))) (bvmul (bvsdiv ?x3033 (_ bv1461 32)) (_ bv4 32)))))
(let ((?x1555 (bvadd (bvadd ?x39786 ?x767) (_ bv1 32))))
(let (($x3327 (or (and (= (bvsmod ?x1555 (_ bv4 32)) (_ bv0 32)) (and (distinct (bvsmod ?x1555 (_ bv100 32)) (_ bv0 32)) true)) (= (bvsmod ?x1555 (_ bv400 32)) (_ bv0 32)))))
(let ((?x40963 (bvsub ?x2112 (bvmul ?x767 (_ bv365 32)))))
(let ((?x3386 (ite $x3327 (_ bv31 32) (_ bv31 32))))
(let (($x41704 (bvsge ?x40963 ?x3386)))
(let ((?x4421 (ite $x41704 (bvadd (bvsub ?x40963 ?x3386) (_ bv1 32)) (bvadd (bvsub ?x40963 (ite $x3327 (_ bv0 32) (_ bv0 32))) (_ bv1 32)))))
(let ((?x40373 (ite $x3327 (_ bv60 32) (_ bv59 32))))
(let (($x524 (bvsge ?x40963 ?x40373)))
(let ((?x41596 (ite $x3327 (_ bv91 32) (_ bv90 32))))
(let (($x1981 (bvsge ?x40963 ?x41596)))
(let ((?x41183 (ite $x1981 (bvadd (bvsub ?x40963 ?x41596) (_ bv1 32)) (ite $x524 (bvadd (bvsub ?x40963 ?x40373) (_ bv1 32)) ?x4421))))
(let ((?x1762 (ite $x3327 (_ bv121 32) (_ bv120 32))))
(let (($x49331 (bvsge ?x40963 ?x1762)))
(let ((?x999 (ite $x3327 (_ bv152 32) (_ bv151 32))))
(let (($x3830 (bvsge ?x40963 ?x999)))
(let ((?x40515 (ite $x3830 (bvadd (bvsub ?x40963 ?x999) (_ bv1 32)) (ite $x49331 (bvadd (bvsub ?x40963 ?x1762) (_ bv1 32)) ?x41183))))
(let ((?x4433 (ite $x3327 (_ bv182 32) (_ bv181 32))))
(let (($x40631 (bvsge ?x40963 ?x4433)))
(let ((?x41483 (ite $x3327 (_ bv213 32) (_ bv212 32))))
(let (($x18921 (bvsge ?x40963 ?x41483)))
(let ((?x41542 (ite $x18921 (bvadd (bvsub ?x40963 ?x41483) (_ bv1 32)) (ite $x40631 (bvadd (bvsub ?x40963 ?x4433) (_ bv1 32)) ?x40515))))
(let ((?x41083 (ite $x3327 (_ bv244 32) (_ bv243 32))))
(let (($x40242 (bvsge ?x40963 ?x41083)))
(let ((?x41500 (ite $x3327 (_ bv274 32) (_ bv273 32))))
(let (($x2603 (bvsge ?x40963 ?x41500)))
(let ((?x41310 (ite $x2603 (bvadd (bvsub ?x40963 ?x41500) (_ bv1 32)) (ite $x40242 (bvadd (bvsub ?x40963 ?x41083) (_ bv1 32)) ?x41542))))
(let ((?x41620 (ite $x3327 (_ bv305 32) (_ bv304 32))))
(let (($x41215 (bvsge ?x40963 ?x41620)))
(let ((?x41700 (ite $x3327 (_ bv335 32) (_ bv334 32))))
(let (($x41315 (bvsge ?x40963 ?x41700)))
(let ((?x40598 (ite $x41315 (bvadd (bvsub ?x40963 ?x41700) (_ bv1 32)) (ite $x41215 (bvadd (bvsub ?x40963 ?x41620) (_ bv1 32)) ?x41310))))
(let (($x48710 (= (_ bv0 32) (_ bv0 32))))
(let (($x46565 (and (= (bvsmod (ite $x48710 ?x40333 ?x1555) (_ bv4 32)) (_ bv0 32)) (and (distinct (bvsmod (ite $x48710 ?x40333 ?x1555) (_ bv100 32)) (_ bv0 32)) true))))
(let (($x40623 (or $x46565 (= (bvsmod (ite $x48710 ?x40333 ?x1555) (_ bv400 32)) (_ bv0 32)))))
(let ((?x2488 (ite $x3830 (_ bv6 32) (ite $x49331 (_ bv5 32) (ite $x1981 (_ bv4 32) (ite $x524 (_ bv3 32) (ite $x41704 (_ bv2 32) (_ bv1 32))))))))
(let ((?x41185 (ite $x41215 (_ bv11 32) (ite $x2603 (_ bv10 32) (ite $x40242 (_ bv9 32) (ite $x18921 (_ bv8 32) (ite $x40631 (_ bv7 32) ?x2488)))))))
(let ((?x40880 (ite $x48710 ?x2794 (ite $x41315 (_ bv12 32) ?x41185))))
(let ((?x46635 (ite (= (_ bv2 32) ?x40880) (ite $x40623 (_ bv31 32) (_ bv31 32)) (ite (= (_ bv1 32) ?x40880) (ite $x40623 (_ bv0 32) (_ bv0 32)) (_ bv0 32)))))
(let ((?x4459 (ite (= (_ bv4 32) ?x40880) (ite $x40623 (_ bv91 32) (_ bv90 32)) (ite (= (_ bv3 32) ?x40880) (ite $x40623 (_ bv60 32) (_ bv59 32)) ?x46635))))
(let ((?x3756 (ite (= (_ bv6 32) ?x40880) (ite $x40623 (_ bv152 32) (_ bv151 32)) (ite (= (_ bv5 32) ?x40880) (ite $x40623 (_ bv121 32) (_ bv120 32)) ?x4459))))
(let ((?x40163 (ite (= (_ bv8 32) ?x40880) (ite $x40623 (_ bv213 32) (_ bv212 32)) (ite (= (_ bv7 32) ?x40880) (ite $x40623 (_ bv182 32) (_ bv181 32)) ?x3756))))
(let ((?x41055 (ite (= (_ bv10 32) ?x40880) (ite $x40623 (_ bv274 32) (_ bv273 32)) (ite (= (_ bv9 32) ?x40880) (ite $x40623 (_ bv244 32) (_ bv243 32)) ?x40163))))
(let ((?x46988 (ite (= (_ bv12 32) ?x40880) (ite $x40623 (_ bv335 32) (_ bv334 32)) (ite (= (_ bv11 32) ?x40880) (ite $x40623 (_ bv305 32) (_ bv304 32)) ?x41055))))
(let ((?x41456 (bvadd (bvmul (_ bv365 32) (bvsub (ite $x48710 ?x40333 ?x1555) (_ bv1 32))) (bvsdiv (bvsub (ite $x48710 ?x40333 ?x1555) (_ bv1 32)) (_ bv4 32)))))
(let ((?x41119 (bvadd (bvsub ?x41456 (bvsdiv (bvsub (ite $x48710 ?x40333 ?x1555) (_ bv1 32)) (_ bv100 32))) (bvsdiv (bvsub (ite $x48710 ?x40333 ?x1555) (_ bv1 32)) (_ bv400 32)))))
(let ((?x40848 (bvsub (bvadd (bvadd ?x41119 ?x46988) (bvsub (ite $x48710 ?x41643 ?x40598) (_ bv1 32))) (_ bv730179 32))))
(= ?x40848 (_ bv6938 32)))))))))))))))))))))))))))))))))))))))))))))))))))))))))))))))))))))))))))))))))))))))))))))))))))))))))))))))))))))))))
(check-sat)
